newgr/fuzix/crypt.dumpralloccfg_setup.gr
p tw 186 194
1 2
2 99
3 14
4 5
5 6
5 175
6 7
7 8
8 9
9 10
10 11
11 12
12 13
13 15
14 25
14 58
15 16
15 8
16 17
17 18
18 19
19 20
20 21
21 22
22 23
23 24
24 26
25 36
26 27
27 28
28 29
29 30
30 31
31 32
32 33
33 34
34 35
35 37
36 47
37 38
38 39
39 40
40 41
41 42
42 43
43 44
44 45
45 46
46 48
47 176
48 49
49 50
50 51
51 52
52 53
53 54
54 55
55 56
55 79
56 57
57 59
58 69
59 60
60 61
61 62
62 63
63 64
64 65
65 66
66 67
66 74
67 68
68 70
69 80
70 71
71 72
72 73
73 63
74 75
75 76
76 77
77 78
78 79
79 81
80 91
81 82
82 83
83 84
83 18
84 85
85 86
86 87
87 88
88 89
89 90
90 92
91 98
92 93
93 94
94 95
95 96
95 86
96 97
98 100
99 110
100 101
101 102
102 103
103 104
104 105
105 106
106 107
107 108
108 109
109 111
109 141
110 121
111 112
112 113
113 114
114 115
115 116
116 117
117 118
118 119
119 120
120 122
121 132
122 123
123 124
124 125
125 126
126 127
127 128
128 129
129 130
130 131
131 133
132 143
133 134
134 135
135 136
136 137
137 138
138 139
139 140
140 141
141 142
142 144
143 154
144 145
145 146
146 147
147 148
148 149
149 150
150 151
151 152
152 153
153 155
154 165
155 156
156 157
157 158
158 159
159 160
160 161
161 162
161 172
162 163
163 164
164 166
165 176
166 167
167 168
168 169
169 170
170 171
171 172
172 173
173 174
174 175
175 177
176 3
177 178
178 179
179 180
180 181
181 182
182 183
183 184
184 185
185 186
186 4
